p tdp 46 87
28 33
4 21
1 9
4 29
5 38
28 46
5 40
19 26
35 43
14 34
1 41
17 24
19 43
31 42
24 31
9 11
3 41
14 27
5 14
10 43
16 44
36 38
13 39
23 32
2 16
3 20
22 25
30 45
6 12
14 21
12 39
15 25
5 25
37 44
30 32
7 8
35 44
18 19
42 45
7 10
6 18
33 44
1 10
29 32
38 46
2 25
4 19
35 41
14 39
32 46
22 26
3 6
15 38
9 36
1 17
17 31
26 31
30 44
15 41
5 19
11 44
9 45
25 46
12 43
8 38
28 43
23 36
13 31
8 39
26 40
6 36
16 24
29 44
1 46
31 45
17 30
24 32
13 41
18 37
21 26
24 44
19 31
13 44
1 19
2 28
37 45
27 34
